results_rootrelaxation/bin012_090_048.srr.sol
solution status: optimal solution found
objective value:                                   32
_var607_                            0.225806451612904 	(obj:3)
_var692_                            0.387096774193548 	(obj:2)
_var709_                            0.258064516129032 	(obj:4)
_var724_                            0.870967741935484 	(obj:3)
_var745_                           0.0967741935483868 	(obj:4)
_var751_                           0.0967741935483871 	(obj:4)
_var775_                            0.387096774193549 	(obj:4)
_var781_                           0.0967741935483868 	(obj:3)
_var783_                            0.129032258064516 	(obj:3)
_var788_                            0.387096774193548 	(obj:3)
_var791_                            0.516129032258064 	(obj:3)
_var793_                            0.387096774193549 	(obj:2)
_var795_                            0.129032258064516 	(obj:4)
_var796_                            0.516129032258064 	(obj:3)
_var797_                           0.0967741935483868 	(obj:3)
_var798_                            0.483870967741935 	(obj:3)
_var804_                            0.225806451612903 	(obj:2)
_var808_                           0.0322580645161291 	(obj:3)
_var816_                            0.161290322580645 	(obj:3)
_var825_                            0.516129032258064 	(obj:3)
_var832_                            0.354838709677419 	(obj:2)
_var833_                             0.67741935483871 	(obj:3)
_var834_                           0.0322580645161295 	(obj:3)
_var838_                            0.129032258064515 	(obj:2)
_var842_                            0.483870967741935 	(obj:4)
_var844_                            0.225806451612903 	(obj:3)
_var849_                            0.129032258064516 	(obj:3)
_var850_                             0.67741935483871 	(obj:3)
_var851_                            0.483870967741936 	(obj:2)
_var858_                            0.387096774193548 	(obj:3)
_var859_                             0.32258064516129 	(obj:1)
_var860_                           0.0322580645161286 	(obj:3)
_var871_                            0.129032258064516 	(obj:3)
_var876_                           0.0967741935483876 	(obj:3)
_var878_                           0.0967741935483861 	(obj:3)
_var879_                           0.0967741935483868 	(obj:3)
_var885_                            0.225806451612903 	(obj:4)
_var887_                            0.129032258064516 	(obj:2)
_var893_                            0.032258064516129 	(obj:3)
_var897_                           0.0322580645161292 	(obj:3)
_var898_                           0.0322580645161289 	(obj:3)
_var903_                           0.0645161290322576 	(obj:2)
_var904_                           0.0322580645161283 	(obj:4)
_var905_                           0.0967741935483871 	(obj:4)
